o10 = "+";
x20 = 5;
o90 = "*";
x100 = 9;

% 2nd line
x41 = 2;

% 3rd line : nothing

% 4th line
o53 = "-";
x63 = 2;

% 5th line
o04 = "+";
o44 = "*";
o84 = "+";
o124 = "*";

% 6th line
o15 = "+";
o95 = "+";

% 7th line : nothing

% 8th line
x27 = 3;
x107 = 1;

% 9th line
o28 = "+";
o108 = "-";

% 10th line
o19 = "*";
o99 = "*";

% 11th line
x410 = 4;

% 12th line : nothing

% 13th line
o512 = "-";
x612 = 2;

% 14th line
o013 = "*";
o413 = "*";
o813 = "*";
o1213 = "+";

% 15th line
o114 = "-";
x214 = 1;
o914 = "-";
x1014 = 6;